BAYES
196
2 2 2 2 2 2 2 2 2 2 2 2 2 2 2 2 2 2 2 2 2 2 2 2 2 2 2 2 2 2 2 2 2 2 2 2 2 2 2 2 2 2 2 2 2 2 2 2 2 2 2 2 2 2 2 2 2 2 2 2 2 2 2 2 2 2 2 2 2 2 2 2 2 2 2 2 2 2 2 2 2 2 2 2 2 2 2 2 2 2 2 2 2 2 2 2 2 2 2 2 2 2 2 2 2 2 2 2 2 2 2 2 2 2 2 2 2 2 2 2 2 2 2 2 2 2 2 2 2 2 2 2 2 2 2 2 2 2 2 2 2 2 2 2 2 2 2 2 2 2 2 2 2 2 2 2 2 2 2 2 2 2 2 2 2 2 2 2 2 2 2 2 2 2 2 2 2 2 2 2 2 2 2 2 2 2 2 2 2 2 2 2 2 2 2 2
196
3 1 14 0
3 2 15 1
3 3 16 2
3 4 17 3
3 5 18 4
3 6 19 5
3 7 20 6
3 8 21 7
3 9 22 8
3 10 23 9
3 11 24 10
3 12 25 11
3 13 26 12
2 14 13
3 15 28 14
3 16 29 15
3 17 30 16
3 18 31 17
3 19 32 18
3 20 33 19
3 21 34 20
3 22 35 21
3 23 36 22
3 24 37 23
3 25 38 24
3 26 39 25
3 27 40 26
2 28 27
3 29 42 28
3 30 43 29
3 31 44 30
3 32 45 31
3 33 46 32
3 34 47 33
3 35 48 34
3 36 49 35
3 37 50 36
3 38 51 37
3 39 52 38
3 40 53 39
3 41 54 40
2 42 41
3 43 56 42
3 44 57 43
3 45 58 44
3 46 59 45
3 47 60 46
3 48 61 47
3 49 62 48
3 50 63 49
3 51 64 50
3 52 65 51
3 53 66 52
3 54 67 53
3 55 68 54
2 56 55
3 57 70 56
3 58 71 57
3 59 72 58
3 60 73 59
3 61 74 60
3 62 75 61
3 63 76 62
3 64 77 63
3 65 78 64
3 66 79 65
3 67 80 66
3 68 81 67
3 69 82 68
2 70 69
3 71 84 70
3 72 85 71
3 73 86 72
3 74 87 73
3 75 88 74
3 76 89 75
3 77 90 76
3 78 91 77
3 79 92 78
3 80 93 79
3 81 94 80
3 82 95 81
3 83 96 82
2 84 83
3 85 98 84
3 86 99 85
3 87 100 86
3 88 101 87
3 89 102 88
3 90 103 89
3 91 104 90
3 92 105 91
3 93 106 92
3 94 107 93
3 95 108 94
3 96 109 95
3 97 110 96
2 98 97
3 99 112 98
3 100 113 99
3 101 114 100
3 102 115 101
3 103 116 102
3 104 117 103
3 105 118 104
3 106 119 105
3 107 120 106
3 108 121 107
3 109 122 108
3 110 123 109
3 111 124 110
2 112 111
3 113 126 112
3 114 127 113
3 115 128 114
3 116 129 115
3 117 130 116
3 118 131 117
3 119 132 118
3 120 133 119
3 121 134 120
3 122 135 121
3 123 136 122
3 124 137 123
3 125 138 124
2 126 125
3 127 140 126
3 128 141 127
3 129 142 128
3 130 143 129
3 131 144 130
3 132 145 131
3 133 146 132
3 134 147 133
3 135 148 134
3 136 149 135
3 137 150 136
3 138 151 137
3 139 152 138
2 140 139
3 141 154 140
3 142 155 141
3 143 156 142
3 144 157 143
3 145 158 144
3 146 159 145
3 147 160 146
3 148 161 147
3 149 162 148
3 150 163 149
3 151 164 150
3 152 165 151
3 153 166 152
2 154 153
3 155 168 154
3 156 169 155
3 157 170 156
3 158 171 157
3 159 172 158
3 160 173 159
3 161 174 160
3 162 175 161
3 163 176 162
3 164 177 163
3 165 178 164
3 166 179 165
3 167 180 166
2 168 167
3 169 182 168
3 170 183 169
3 171 184 170
3 172 185 171
3 173 186 172
3 174 187 173
3 175 188 174
3 176 189 175
3 177 190 176
3 178 191 177
3 179 192 178
3 180 193 179
3 181 194 180
2 182 181
2 196 182
2 197 183
2 198 184
2 199 185
2 200 186
2 201 187
2 202 188
2 203 189
2 204 190
2 205 191
2 206 192
2 207 193
2 208 194
1  195
8
0 1 0 1 1 0 0 1
8
1 0 0 1 1 0 1 0
8
0.2674967863945315 0.7325032136054684 0.44130052012872717 0.5586994798712729 0.3370732285137101 0.66292677148629 0.9117051585915802 0.08829484140841973
8
0 1 0 1 0 1 1 0
8
1 0 0 1 0 1 1 0
8
0 1 0 1 0 1 0 1
8
0 1 0 1 1 0 0 1
8
0.010817906884941442 0.9891820931150586 0.6093739545979059 0.390626045402094 0.7262561191112396 0.27374388088876045 0.21775119793740655 0.7822488020625935
8
0 1 0 1 1 0 0 1
8
1 0 0 1 1 0 0 1
8
0.10197301943584527 0.8980269805641549 0.9223259765475916 0.07767402345240834 0.8826769347921356 0.11732306520786444 0.7569980389443495 0.2430019610556505
8
0 1 0 1 0 1 0 1
8
1 0 1 0 0 1 0 1
4
0 1 0 1
8
1 0 0 1 0 1 1 0
8
0 1 1 0 0 1 1 0
8
0 1 0 1 0 1 1 0
8
1 0 1 0 1 0 1 0
8
1 0 1 0 0 1 1 0
8
0 1 0 1 0 1 1 0
8
0 1 0 1 1 0 0 1
8
0 1 1 0 0 1 0 1
8
0 1 0 1 1 0 1 0
8
0 1 1 0 0 1 0 1
8
0 1 0 1 1 0 0 1
8
1 0 0 1 1 0 1 0
8
1 0 0 1 1 0 0 1
4
0 1 1 0
8
1 0 1 0 0 1 1 0
8
0 1 0 1 0 1 0 1
8
0.7582303223022807 0.24176967769771932 0.6512604748282589 0.3487395251717411 0.35115741908873405 0.648842580911266 0.8116225356826746 0.18837746431732533
8
0 1 1 0 1 0 1 0
8
1 0 0 1 1 0 0 1
8
1 0 1 0 1 0 1 0
8
0 1 1 0 1 0 0 1
8
1 0 0 1 1 0 0 1
8
0 1 1 0 0 1 1 0
8
0.954200808869766 0.04579919113023408 0.8839276761508149 0.11607232384918503 0.5288562720035122 0.47114372799648785 0.3776729620197902 0.6223270379802097
8
1 0 1 0 0 1 0 1
8
0 1 0 1 1 0 0 1
8
0.533559453623506 0.46644054637649396 0.5953174205196514 0.40468257948034864 0.46747398385927547 0.5325260161407245 0.8857284863708372 0.11427151362916282
4
0 1 0 1
8
0 1 1 0 0 1 0 1
8
0 1 1 0 0 1 0 1
8
1 0 1 0 1 0 1 0
8
0 1 0 1 0 1 1 0
8
0 1 1 0 1 0 1 0
8
1 0 1 0 1 0 0 1
8
0 1 0 1 1 0 1 0
8
0 1 1 0 0 1 1 0
8
1 0 1 0 0 1 1 0
8
0 1 1 0 1 0 0 1
8
0.29419365707231154 0.7058063429276885 0.23568104902740467 0.7643189509725954 0.3052915402743234 0.6947084597256765 0.22359888122156574 0.7764011187784342
8
1 0 0 1 0 1 1 0
8
1 0 0 1 1 0 0 1
4
0 1 0 1
8
0 1 1 0 1 0 1 0
8
0 1 0 1 0 1 1 0
8
1 0 1 0 0 1 0 1
8
0.06293604430409193 0.9370639556959081 0.6097607734885975 0.39023922651140247 0.5073258496451665 0.4926741503548336 0.7700709564574795 0.22992904354252056
8
0.5068422178012669 0.4931577821987331 0.45322146473562847 0.5467785352643715 0.33150913645608965 0.6684908635439104 0.6625918337349886 0.3374081662650113
8
0 1 0 1 1 0 1 0
8
0 1 1 0 0 1 1 0
8
0 1 0 1 0 1 1 0
8
0 1 0 1 1 0 0 1
8
1 0 1 0 0 1 0 1
8
0 1 0 1 1 0 0 1
8
1 0 1 0 0 1 1 0
8
0.01850366602836669 0.9814963339716333 0.8319765740057434 0.1680234259942566 0.6159964825348772 0.3840035174651229 0.4460789205966782 0.5539210794033218
4
0 1 0 1
8
1 0 1 0 0 1 0 1
8
1 0 1 0 0 1 0 1
8
0 1 0 1 1 0 1 0
8
0 1 1 0 0 1 1 0
8
0 1 0 1 0 1 1 0
8
0 1 0 1 1 0 1 0
8
0 1 1 0 0 1 1 0
8
1 0 1 0 0 1 1 0
8
0 1 1 0 1 0 1 0
8
0 1 0 1 1 0 0 1
8
0 1 1 0 0 1 1 0
8
1 0 1 0 0 1 0 1
8
1 0 0 1 0 1 0 1
4
0 1 0 1
8
1 0 1 0 1 0 1 0
8
1 0 1 0 1 0 1 0
8
1 0 1 0 1 0 0 1
8
1 0 1 0 0 1 0 1
8
1 0 1 0 0 1 1 0
8
0 1 1 0 0 1 1 0
8
0 1 1 0 1 0 0 1
8
0 1 1 0 1 0 1 0
8
0 1 1 0 1 0 0 1
8
0 1 0 1 1 0 0 1
8
1 0 1 0 1 0 1 0
8
0 1 0 1 0 1 1 0
8
1 0 1 0 1 0 0 1
4
0.6670088480113734 0.3329911519886266 0.7882026833340144 0.21179731666598553
8
0.6130891921336472 0.38691080786635285 0.4128856197437917 0.5871143802562084 0.5329972353478964 0.4670027646521036 0.5168189576783884 0.4831810423216117
8
1 0 0 1 1 0 1 0
8
0 1 0 1 0 1 0 1
8
0 1 0 1 0 1 1 0
8
1 0 0 1 0 1 0 1
8
0 1 0 1 0 1 1 0
8
0.9522815827323773 0.04771841726762276 0.8615679633163227 0.1384320366836773 0.31986654299104694 0.6801334570089531 0.03106120294498465 0.9689387970550154
8
0 1 1 0 0 1 1 0
8
0 1 0 1 0 1 1 0
8
1 0 1 0 1 0 1 0
8
0 1 1 0 1 0 1 0
8
0 1 0 1 0 1 0 1
8
1 0 1 0 0 1 1 0
4
1 0 1 0
8
0 1 1 0 1 0 1 0
8
1 0 0 1 1 0 0 1
8
1 0 0 1 0 1 0 1
8
0 1 0 1 0 1 1 0
8
0 1 0 1 0 1 0 1
8
0 1 1 0 0 1 1 0
8
0.44862550735185264 0.5513744926481473 0.5847998126448675 0.4152001873551325 0.485543272416412 0.5144567275835882 0.39549015004751337 0.6045098499524866
8
1 0 0 1 1 0 0 1
8
1 0 1 0 0 1 1 0
8
0 1 0 1 1 0 1 0
8
0 1 0 1 0 1 1 0
8
0 1 1 0 1 0 0 1
8
0 1 1 0 1 0 0 1
4
1 0 1 0
8
0.5762806849451088 0.42371931505489124 0.7316220622536705 0.2683779377463295 0.2475101784291061 0.752489821570894 0.8056222981798228 0.19437770182017722
8
0 1 1 0 0 1 1 0
8
0 1 0 1 0 1 1 0
8
0.5264211847241032 0.4735788152758968 0.4275605028027297 0.5724394971972703 0.08696039516910949 0.9130396048308905 0.5051172479473804 0.4948827520526196
8
1 0 0 1 0 1 0 1
8
0 1 0 1 1 0 1 0
8
1 0 0 1 1 0 1 0
8
0 1 1 0 1 0 1 0
8
0 1 0 1 0 1 1 0
8
0 1 1 0 0 1 1 0
8
1 0 0 1 1 0 0 1
8
0 1 1 0 1 0 1 0
8
1 0 0 1 0 1 0 1
4
1 0 1 0
8
0 1 0 1 1 0 0 1
8
0 1 1 0 1 0 0 1
8
0 1 1 0 1 0 0 1
8
1 0 0 1 0 1 0 1
8
0 1 0 1 0 1 1 0
8
1 0 1 0 0 1 1 0
8
0 1 1 0 1 0 1 0
8
0 1 1 0 0 1 1 0
8
0 1 1 0 1 0 1 0
8
0 1 0 1 1 0 0 1
8
0 1 1 0 0 1 0 1
8
1 0 0 1 0 1 0 1
8
0.4091291134856015 0.5908708865143985 0.5878102859807375 0.4121897140192624 0.6442276174099776 0.3557723825900224 0.834918888766445 0.16508111123355496
4
1 0 0 1
8
0 1 1 0 0 1 0 1
8
1 0 0 1 1 0 0 1
8
0.5698515360354612 0.4301484639645388 0.6721373019049631 0.32786269809503693 0.7160036148000071 0.283996385199993 0.7337462923815832 0.2662537076184168
8
0 1 1 0 1 0 0 1
8
0 1 1 0 0 1 1 0
8
0 1 0 1 1 0 1 0
8
1 0 1 0 0 1 1 0
8
1 0 0 1 0 1 0 1
8
0 1 0 1 1 0 0 1
8
0 1 1 0 1 0 0 1
8
1 0 1 0 0 1 0 1
8
1 0 1 0 1 0 1 0
8
1 0 0 1 0 1 1 0
4
1 0 0 1
8
1 0 1 0 0 1 0 1
8
0 1 1 0 0 1 0 1
8
1 0 0 1 0 1 1 0
8
0 1 1 0 0 1 0 1
8
1 0 1 0 1 0 1 0
8
0 1 0 1 0 1 0 1
8
1 0 1 0 1 0 0 1
8
1 0 0 1 0 1 1 0
8
1 0 0 1 0 1 1 0
8
0 1 0 1 1 0 1 0
8
1 0 0 1 1 0 1 0
8
0 1 0 1 0 1 0 1
8
0 1 1 0 0 1 0 1
4
0 1 0 1
4
1 0 0 1
4
0 1 1 0
4
0 1 1 0
4
0 1 1 0
4
1 0 1 0
4
0 1 0 1
4
0 1 1 0
4
1 0 0 1
4
0 1 0 1
4
0.6028345851945416 0.3971654148054584 0.9756764819384551 0.024323518061544862
4
0 1 1 0
4
0.22792656550320886 0.7720734344967911 0.74887676536047 0.25112323463953
4
1 0 0 1
2
0 1
